benchmark/results/graph__10-1000-0.10-03_5/graph__10-1000-0.10-03_5_QuintonOs_Benders_aux.lp
\ This file has been generated by DOcplex
\ ENCODING=ISO-8859-1
\Problem name: Quinton Bounded Benders_auxiliary_sub

Minimize
 obj: 0.003424657534 pi_nr_a0 + 0.001161140342 pi_nr_a1
      + 0.001102538427 pi_nr_a2 + 0.001915708470 pi_nr_a3
      + 0.001027301181 pi_nr_a4 + 0.001367989054 pi_nr_a5
      + 0.001650161442 pi_nr_a6 + 0.000908430232 pi_nr_a7
      + 0.001293009932 pi_nr_a8 + 0.000896860987 pi_nr_a9 + pi_p_a3_a1
      + pi_p_a7_a8 + pi_p_a2_a8 + pi_p_a3_a8
      + 1941.813043172780 pi_d_a0_a1_proc_2
      + 1294.295356285164 pi_d_a0_a1_proc_0
      + 1941.384825626886 pi_d_a0_a1_proc_1
      + 1941.817559782894 pi_d_a1_a0_proc_2
      + 1294.299872895277 pi_d_a1_a0_proc_0
      + 1941.389342236999 pi_d_a1_a0_proc_1
      + 1307.004753785036 pi_d_a0_a2_proc_2
      + 1306.995151914637 pi_d_a0_a2_proc_0
      + 1282.004848085363 pi_d_a2_a0_proc_2
      + 1281.995246214964 pi_d_a2_a0_proc_0
      + 2600.999974903336 pi_d_a0_a3_proc_2
      + 1306.999415413890 pi_d_a0_a3_proc_0
      + 1307.000592239118 pi_d_a0_a3_proc_1
      + 2575.999986532440 pi_d_a3_a0_proc_2
      + 1281.999427042994 pi_d_a3_a0_proc_0
      + 1282.000603868222 pi_d_a3_a0_proc_1
      + 1947.393131445650 pi_d_a0_a4_proc_2 + 653.609037627272 pi_d_a0_a4_proc_0
      + 2594.501084536461 pi_d_a0_a4_proc_1
      + 1935.390962372727 pi_d_a4_a0_proc_2 + 641.606868554350 pi_d_a4_a0_proc_0
      + 2582.498915463539 pi_d_a4_a0_proc_1
      + 2600.999981026242 pi_d_a0_a5_proc_2 + 1307 pi_d_a0_a5_proc_0
      + 1307.000018973758 pi_d_a0_a5_proc_1
      + 2575.999981026242 pi_d_a5_a0_proc_2 + 1282 pi_d_a5_a0_proc_0
      + 1282.000018973758 pi_d_a5_a0_proc_1
      + 2587.995150572235 pi_d_a0_a6_proc_2 + 0.008725782965 pi_d_a0_a6_proc_0
      + 2587.996384016289 pi_d_a0_a6_proc_1
      + 2588.994976991242 pi_d_a6_a0_proc_2 + 1.008552201973 pi_d_a6_a0_proc_0
      + 2588.996210435296 pi_d_a6_a0_proc_1 + 653.499998782612 pi_d_a0_a7_proc_0
      + 1947.500001193170 pi_d_a0_a7_proc_1 + 641.499998806830 pi_d_a7_a0_proc_0
      + 1935.500001217388 pi_d_a7_a0_proc_1
      + 2594.804382314037 pi_d_a0_a8_proc_2 + 654.199279775201 pi_d_a0_a8_proc_0
      + 1948.001831044618 pi_d_a0_a8_proc_1
      + 2581.800720224800 pi_d_a8_a0_proc_2 + 641.195617685963 pi_d_a8_a0_proc_0
      + 1934.998168955380 pi_d_a8_a0_proc_1 + 1307 pi_d_a0_a9_proc_2
      + 1307 pi_d_a0_a9_proc_0 + 2601 pi_d_a0_a9_proc_1 + 1282 pi_d_a9_a0_proc_2
      + 1282 pi_d_a9_a0_proc_0 + 2576 pi_d_a9_a0_proc_1
      + 653.823274883622 pi_d_a1_a2_proc_2 + 2594.295986125606 pi_d_a1_a2_proc_0
      + 641.816929942451 pi_d_a2_a1_proc_2 + 2582.289641184436 pi_d_a2_a1_proc_0
      + 1947.814147602556 pi_d_a1_a3_proc_2
      + 2594.295901225494 pi_d_a1_a3_proc_0 + 653.386547392443 pi_d_a1_a3_proc_1
      + 1935.816416788894 pi_d_a3_a1_proc_2
      + 2582.298170411832 pi_d_a3_a1_proc_0 + 641.388816578781 pi_d_a3_a1_proc_1
      + 1307.205358815977 pi_d_a1_a4_proc_2
      + 1953.903578109983 pi_d_a1_a4_proc_0
      + 1953.885094360893 pi_d_a1_a4_proc_1
      + 1282.209337958075 pi_d_a4_a1_proc_2
      + 1928.907557252081 pi_d_a4_a1_proc_0
      + 1928.889073502992 pi_d_a4_a1_proc_1
      + 1947.814147920153 pi_d_a1_a5_proc_2
      + 2594.296480006295 pi_d_a1_a5_proc_0 + 653.385968321775 pi_d_a1_a5_proc_1
      + 1935.816417088005 pi_d_a5_a1_proc_2
      + 2582.298749174146 pi_d_a5_a1_proc_0 + 641.388237489627 pi_d_a5_a1_proc_1
      + 1954.308344419147 pi_d_a1_a6_proc_2
      + 1306.804232742261 pi_d_a1_a6_proc_0
      + 1953.881360317307 pi_d_a1_a6_proc_1
      + 1929.312386100004 pi_d_a6_a1_proc_2
      + 1281.808274423118 pi_d_a6_a1_proc_0
      + 1928.885401998164 pi_d_a6_a1_proc_1
      + 1941.296478988585 pi_d_a1_a7_proc_0
      + 1294.385950740865 pi_d_a1_a7_proc_1
      + 1941.298747781298 pi_d_a7_a1_proc_0
      + 1294.388219533577 pi_d_a7_a1_proc_1
      + 1948.117803151558 pi_d_a1_a8_proc_2
      + 1947.995013725105 pi_d_a1_a8_proc_0
      + 1300.887034336244 pi_d_a1_a8_proc_1
      + 1935.117902342953 pi_d_a8_a1_proc_2
      + 1934.995112916500 pi_d_a8_a1_proc_0
      + 1287.887133527639 pi_d_a8_a1_proc_1 + 653.818469112468 pi_d_a1_a9_proc_2
      + 2594.300782224851 pi_d_a1_a9_proc_0
      + 1947.390251566573 pi_d_a1_a9_proc_1 + 641.812133843207 pi_d_a9_a1_proc_2
      + 2582.294446955590 pi_d_a9_a1_proc_0
      + 1935.383916297312 pi_d_a9_a1_proc_1
      + 1307.004776810209 pi_d_a2_a3_proc_2
      + 2600.994615450364 pi_d_a2_a3_proc_0
      + 1282.004786495967 pi_d_a3_a2_proc_2
      + 2575.994625136122 pi_d_a3_a2_proc_0 + 653.895879101821 pi_d_a2_a4_proc_2
      + 1948.102183413044 pi_d_a2_a4_proc_0 + 640.897816586956 pi_d_a4_a2_proc_2
      + 1935.104120898179 pi_d_a4_a2_proc_0
      + 1282.004781961441 pi_d_a2_a5_proc_2
      + 2575.995199064801 pi_d_a2_a5_proc_0
      + 1307.004781961441 pi_d_a5_a2_proc_2
      + 2600.995199064801 pi_d_a5_a2_proc_0
      + 1306.999804093273 pi_d_a2_a6_proc_2
      + 1307.003777433605 pi_d_a2_a6_proc_0
      + 1281.999925340602 pi_d_a6_a2_proc_2
      + 1282.003898680934 pi_d_a6_a2_proc_0
      + 1941.495197847413 pi_d_a2_a7_proc_0
      + 1941.495197871631 pi_d_a7_a2_proc_0
      + 1281.809386682987 pi_d_a2_a8_proc_2
      + 1929.194682273752 pi_d_a2_a8_proc_0
      + 1306.805317726249 pi_d_a8_a2_proc_2
      + 1954.190613317013 pi_d_a8_a2_proc_0 + 0.504944594199 pi_d_a2_a9_proc_2
      + 2588.495342723800 pi_d_a2_a9_proc_0 + 0.504657276200 pi_d_a9_a2_proc_2
      + 2588.495055405801 pi_d_a9_a2_proc_0
      + 1953.892027627076 pi_d_a3_a4_proc_2
      + 1954.107374319252 pi_d_a3_a4_proc_0
      + 1307.000598053668 pi_d_a3_a4_proc_1
      + 1928.892027627078 pi_d_a4_a3_proc_2
      + 1929.107374319255 pi_d_a4_a3_proc_0
      + 1282.000598053671 pi_d_a4_a3_proc_1
      + 2588.999967466176 pi_d_a3_a5_proc_2
      + 2588.999426950488 pi_d_a3_a5_proc_0 + 1.000622749474 pi_d_a3_a5_proc_1
      + 2587.999956022084 pi_d_a5_a3_proc_2
      + 2587.999415506396 pi_d_a5_a3_proc_0 + 0.000611305382 pi_d_a5_a3_proc_1
      + 2600.994909427110 pi_d_a3_a6_proc_2
      + 1307.007925148394 pi_d_a3_a6_proc_0
      + 1306.996760206946 pi_d_a3_a6_proc_1
      + 2575.995179572143 pi_d_a6_a3_proc_2
      + 1282.008195293427 pi_d_a6_a3_proc_0
      + 1281.997030351979 pi_d_a6_a3_proc_1
      + 1935.499425580433 pi_d_a3_a7_proc_0 + 641.500604816218 pi_d_a3_a7_proc_1
      + 1947.499414465893 pi_d_a7_a3_proc_0 + 653.500593701678 pi_d_a7_a3_proc_1
      + 2594.802526620029 pi_d_a3_a8_proc_2
      + 1948.196864591746 pi_d_a3_a8_proc_0 + 654.000592686391 pi_d_a3_a8_proc_1
      + 2581.802537354584 pi_d_a8_a3_proc_2
      + 1935.196875326302 pi_d_a8_a3_proc_0 + 641.000603420947 pi_d_a8_a3_proc_1
      + 1306.999980539074 pi_d_a3_a9_proc_2
      + 2600.999421049628 pi_d_a3_a9_proc_0
      + 1307.000597874856 pi_d_a3_a9_proc_1
      + 1281.999980896702 pi_d_a9_a3_proc_2
      + 2575.999421407256 pi_d_a9_a3_proc_0
      + 1282.000598232484 pi_d_a9_a3_proc_1
      + 1953.892027818960 pi_d_a4_a5_proc_2
      + 1954.107952974341 pi_d_a4_a5_proc_0
      + 1307.000018857288 pi_d_a4_a5_proc_1
      + 1928.892028051900 pi_d_a5_a4_proc_2
      + 1929.107953207282 pi_d_a5_a4_proc_0
      + 1282.000019090229 pi_d_a5_a4_proc_1
      + 1947.388145636324 pi_d_a4_a6_proc_2 + 653.617627028677 pi_d_a4_a6_proc_0
      + 2594.497332171189 pi_d_a4_a6_proc_1
      + 1935.386075745530 pi_d_a6_a4_proc_2 + 641.615557137884 pi_d_a6_a4_proc_0
      + 2582.495262280396 pi_d_a6_a4_proc_1
      + 1307.107951885533 pi_d_a4_a7_proc_0
      + 1954.000001205279 pi_d_a4_a7_proc_1
      + 1282.107951885533 pi_d_a7_a4_proc_0
      + 1929.000001205279 pi_d_a7_a4_proc_1
      + 1947.697430342012 pi_d_a4_a8_proc_2
      + 1301.308233984798 pi_d_a4_a8_proc_0
      + 1948.002832163404 pi_d_a4_a8_proc_1
      + 1934.691766015203 pi_d_a8_a4_proc_2
      + 1288.302569657989 pi_d_a8_a4_proc_0
      + 1934.997167836595 pi_d_a8_a4_proc_1 + 653.390962372728 pi_d_a4_a9_proc_2
      + 1947.606868554350 pi_d_a4_a9_proc_0
      + 2594.498915463539 pi_d_a4_a9_proc_1 + 641.393131445650 pi_d_a9_a4_proc_2
      + 1935.609037627273 pi_d_a9_a4_proc_0
      + 2582.501084536461 pi_d_a9_a4_proc_1
      + 2600.995007614611 pi_d_a5_a6_proc_2
      + 1307.008601799100 pi_d_a5_a6_proc_0
      + 1306.996279006182 pi_d_a5_a6_proc_1
      + 2575.995082001349 pi_d_a6_a5_proc_2
      + 1282.008676185838 pi_d_a6_a5_proc_0
      + 1281.996353392921 pi_d_a6_a5_proc_1
      + 1934.999998618767 pi_d_a5_a7_proc_0 + 641.000020003083 pi_d_a5_a7_proc_1
      + 1947.999998970676 pi_d_a7_a5_proc_0 + 654.000020354992 pi_d_a7_a5_proc_1
      + 2594.802532295659 pi_d_a5_a8_proc_2
      + 1948.197448730581 pi_d_a5_a8_proc_0 + 654.000018973757 pi_d_a5_a8_proc_1
      + 2581.802532295661 pi_d_a8_a5_proc_2
      + 1935.197448730583 pi_d_a8_a5_proc_0 + 641.000018973759 pi_d_a8_a5_proc_1
      + 1281.999981202196 pi_d_a5_a9_proc_2
      + 2576.000000175954 pi_d_a5_a9_proc_0
      + 1282.000019149713 pi_d_a5_a9_proc_1
      + 1306.999980850287 pi_d_a9_a5_proc_2
      + 2600.999999824046 pi_d_a9_a5_proc_0
      + 1307.000018797804 pi_d_a9_a5_proc_1 + 654.008603438076 pi_d_a6_a7_proc_0
      + 1947.996264081957 pi_d_a6_a7_proc_1 + 641.008672136304 pi_d_a7_a6_proc_0
      + 1934.996332780186 pi_d_a7_a6_proc_1
      + 2594.799526220149 pi_d_a6_a8_proc_2 + 654.207998892044 pi_d_a6_a8_proc_0
      + 1947.998208394785 pi_d_a6_a8_proc_1
      + 2581.795703882164 pi_d_a8_a6_proc_2 + 641.204176554058 pi_d_a8_a6_proc_0
      + 1934.994386056799 pi_d_a8_a6_proc_1
      + 1306.995018005371 pi_d_a6_a9_proc_2
      + 1307.008593216102 pi_d_a6_a9_proc_0
      + 2600.996251449425 pi_d_a6_a9_proc_1
      + 1281.995109558105 pi_d_a9_a6_proc_2
      + 1282.008684768836 pi_d_a9_a6_proc_0
      + 2575.996343002160 pi_d_a9_a6_proc_1
      + 1307.197447514126 pi_d_a7_a8_proc_0
      + 1307.000001194101 pi_d_a7_a8_proc_1
      + 1282.197447536480 pi_d_a8_a7_proc_0
      + 1282.000001216456 pi_d_a8_a7_proc_1
      + 1953.999998794721 pi_d_a7_a9_proc_0
      + 1954.000001205279 pi_d_a7_a9_proc_1
      + 1928.999998794721 pi_d_a9_a7_proc_0
      + 1929.000001205279 pi_d_a9_a7_proc_1
      + 1306.800567626839 pi_d_a8_a9_proc_2
      + 1954.195465088003 pi_d_a8_a9_proc_0
      + 1953.998016357420 pi_d_a8_a9_proc_1
      + 1281.804534911998 pi_d_a9_a8_proc_2
      + 1929.199432373161 pi_d_a9_a8_proc_0
      + 1929.001983642579 pi_d_a9_a8_proc_1 + pi_y2_a0_proc_0
      + 0.000000000000 pi_y2_a0_proc_1 + 0.000000000000 pi_y2_a0_proc_2
      + 0.000156402944 pi_y2_a1_proc_0 + 0.500087261258 pi_y2_a1_proc_1
      + 0.499756335798 pi_y2_a1_proc_2 + 0.000003710151 pi_y2_a2_proc_0
      + 0.999996289849 pi_y2_a2_proc_2 + 0.000000447273 pi_y2_a3_proc_0
      + 0.999999537826 pi_y2_a3_proc_1 + 0.000000014901 pi_y2_a3_proc_2
      + 0.499916574118 pi_y2_a4_proc_0 + 0.000000000000 pi_y2_a4_proc_1
      + 0.500083425882 pi_y2_a4_proc_2 + 0.000000000000 pi_y2_a5_proc_0
      + 0.999999985337 pi_y2_a5_proc_1 + 0.000000014663 pi_y2_a5_proc_2
      + 0.999993323808 pi_y2_a6_proc_0 + 0.000002861495 pi_y2_a6_proc_1
      + 0.000003814697 pi_y2_a6_proc_2 + 0.500000000931 pi_y2_a7_proc_0
      + 0.499999999069 pi_y2_a7_proc_1 + 0.499847412109 pi_y2_a8_proc_0
      + 0.500000000000 pi_y2_a8_proc_1 + 0.000152587891 pi_y2_a8_proc_2
      + 0.000000000000 pi_y2_a9_proc_0 + 0.000000000000 pi_y2_a9_proc_1
      + pi_y2_a9_proc_2
Subject To
 c1: 0.003424657534 pi_nr_a0 + 0.000879507476 pi_nr_a1 + 0.001102535832 pi_nr_a2
     + 0.001915708812 pi_nr_a3 + 0.001036269430 pi_nr_a4
     + 0.001367989056 pi_nr_a5 + 0.001650165017 pi_nr_a6
     + 0.000775193798 pi_nr_a7 + 0.000930232558 pi_nr_a8
     + 0.000896860987 pi_nr_a9 + pi_p_a3_a1 + pi_p_a7_a8 + pi_p_a2_a8
     + pi_p_a3_a8 + 2576 pi_d_a0_a1_proc_2 + 1282 pi_d_a0_a1_proc_0
     + 1282 pi_d_a0_a1_proc_1 + 2601 pi_d_a1_a0_proc_2 + 1307 pi_d_a1_a0_proc_0
     + 1307 pi_d_a1_a0_proc_1 + 1307 pi_d_a0_a2_proc_2 + 1307 pi_d_a0_a2_proc_0
     + 1282 pi_d_a2_a0_proc_2 + 1282 pi_d_a2_a0_proc_0 + 2601 pi_d_a0_a3_proc_2
     + 1307 pi_d_a0_a3_proc_0 + 1307 pi_d_a0_a3_proc_1 + 2576 pi_d_a3_a0_proc_2
     + 1282 pi_d_a3_a0_proc_0 + 1282 pi_d_a3_a0_proc_1 + 1307 pi_d_a0_a4_proc_2
     + 1307 pi_d_a0_a4_proc_0 + 2601 pi_d_a0_a4_proc_1 + 1282 pi_d_a4_a0_proc_2
     + 1282 pi_d_a4_a0_proc_0 + 2576 pi_d_a4_a0_proc_1 + 2601 pi_d_a0_a5_proc_2
     + 1307 pi_d_a0_a5_proc_0 + 1307 pi_d_a0_a5_proc_1 + 2576 pi_d_a5_a0_proc_2
     + 1282 pi_d_a5_a0_proc_0 + 1282 pi_d_a5_a0_proc_1 + 2588 pi_d_a0_a6_proc_2
     + 2588 pi_d_a0_a6_proc_1 + 2589 pi_d_a6_a0_proc_2 + pi_d_a6_a0_proc_0
     + 2589 pi_d_a6_a0_proc_1 + 2588 pi_d_a0_a7_proc_1 + pi_d_a7_a0_proc_0
     + 2589 pi_d_a7_a0_proc_1 + 2601 pi_d_a0_a8_proc_2 + 1307 pi_d_a0_a8_proc_0
     + 1307 pi_d_a0_a8_proc_1 + 2576 pi_d_a8_a0_proc_2 + 1282 pi_d_a8_a0_proc_0
     + 1282 pi_d_a8_a0_proc_1 + 1307 pi_d_a0_a9_proc_2 + 1307 pi_d_a0_a9_proc_0
     + 2601 pi_d_a0_a9_proc_1 + 1282 pi_d_a9_a0_proc_2 + 1282 pi_d_a9_a0_proc_0
     + 2576 pi_d_a9_a0_proc_1 + 1307 pi_d_a1_a2_proc_2 + 2601 pi_d_a1_a2_proc_0
     + 1282 pi_d_a2_a1_proc_2 + 2576 pi_d_a2_a1_proc_0 + 2588 pi_d_a1_a3_proc_2
     + 2588 pi_d_a1_a3_proc_0 + 2589 pi_d_a3_a1_proc_2 + 2589 pi_d_a3_a1_proc_0
     + pi_d_a3_a1_proc_1 + 1307 pi_d_a1_a4_proc_2 + 2601 pi_d_a1_a4_proc_0
     + 1307 pi_d_a1_a4_proc_1 + 1282 pi_d_a4_a1_proc_2 + 2576 pi_d_a4_a1_proc_0
     + 1282 pi_d_a4_a1_proc_1 + 2588 pi_d_a1_a5_proc_2 + 2588 pi_d_a1_a5_proc_0
     + 2589 pi_d_a5_a1_proc_2 + 2589 pi_d_a5_a1_proc_0 + pi_d_a5_a1_proc_1
     + 2601 pi_d_a1_a6_proc_2 + 1307 pi_d_a1_a6_proc_0 + 1307 pi_d_a1_a6_proc_1
     + 2576 pi_d_a6_a1_proc_2 + 1282 pi_d_a6_a1_proc_0 + 1282 pi_d_a6_a1_proc_1
     + 1282 pi_d_a1_a7_proc_0 + 1282 pi_d_a1_a7_proc_1 + 1307 pi_d_a7_a1_proc_0
     + 1307 pi_d_a7_a1_proc_1 + 2589 pi_d_a1_a8_proc_2 + 2589 pi_d_a1_a8_proc_0
     + pi_d_a1_a8_proc_1 + 2588 pi_d_a8_a1_proc_2 + 2588 pi_d_a8_a1_proc_0
     + 1307 pi_d_a1_a9_proc_2 + 2601 pi_d_a1_a9_proc_0 + 1307 pi_d_a1_a9_proc_1
     + 1282 pi_d_a9_a1_proc_2 + 2576 pi_d_a9_a1_proc_0 + 1282 pi_d_a9_a1_proc_1
     + 1307 pi_d_a2_a3_proc_2 + 2601 pi_d_a2_a3_proc_0 + 1282 pi_d_a3_a2_proc_2
     + 2576 pi_d_a3_a2_proc_0 + pi_d_a2_a4_proc_2 + 2589 pi_d_a2_a4_proc_0
     + 2588 pi_d_a4_a2_proc_0 + 1282 pi_d_a2_a5_proc_2 + 2576 pi_d_a2_a5_proc_0
     + 1307 pi_d_a5_a2_proc_2 + 2601 pi_d_a5_a2_proc_0 + 1307 pi_d_a2_a6_proc_2
     + 1307 pi_d_a2_a6_proc_0 + 1282 pi_d_a6_a2_proc_2 + 1282 pi_d_a6_a2_proc_0
     + 1282 pi_d_a2_a7_proc_0 + 1307 pi_d_a7_a2_proc_0 + 1282 pi_d_a2_a8_proc_2
     + 2576 pi_d_a2_a8_proc_0 + 1307 pi_d_a8_a2_proc_2 + 2601 pi_d_a8_a2_proc_0
     + pi_d_a2_a9_proc_2 + 2589 pi_d_a2_a9_proc_0 + 2588 pi_d_a9_a2_proc_0
     + 1307 pi_d_a3_a4_proc_2 + 2601 pi_d_a3_a4_proc_0 + 1307 pi_d_a3_a4_proc_1
     + 1282 pi_d_a4_a3_proc_2 + 2576 pi_d_a4_a3_proc_0 + 1282 pi_d_a4_a3_proc_1
     + 2589 pi_d_a3_a5_proc_2 + 2589 pi_d_a3_a5_proc_0 + pi_d_a3_a5_proc_1
     + 2588 pi_d_a5_a3_proc_2 + 2588 pi_d_a5_a3_proc_0 + 2601 pi_d_a3_a6_proc_2
     + 1307 pi_d_a3_a6_proc_0 + 1307 pi_d_a3_a6_proc_1 + 2576 pi_d_a6_a3_proc_2
     + 1282 pi_d_a6_a3_proc_0 + 1282 pi_d_a6_a3_proc_1 + 1282 pi_d_a3_a7_proc_0
     + 1282 pi_d_a3_a7_proc_1 + 1307 pi_d_a7_a3_proc_0 + 1307 pi_d_a7_a3_proc_1
     + 2589 pi_d_a3_a8_proc_2 + 2589 pi_d_a3_a8_proc_0 + pi_d_a3_a8_proc_1
     + 2588 pi_d_a8_a3_proc_2 + 2588 pi_d_a8_a3_proc_0 + 1307 pi_d_a3_a9_proc_2
     + 2601 pi_d_a3_a9_proc_0 + 1307 pi_d_a3_a9_proc_1 + 1282 pi_d_a9_a3_proc_2
     + 2576 pi_d_a9_a3_proc_0 + 1282 pi_d_a9_a3_proc_1 + 1307 pi_d_a4_a5_proc_2
     + 2601 pi_d_a4_a5_proc_0 + 1307 pi_d_a4_a5_proc_1 + 1282 pi_d_a5_a4_proc_2
     + 2576 pi_d_a5_a4_proc_0 + 1282 pi_d_a5_a4_proc_1 + 1307 pi_d_a4_a6_proc_2
     + 1307 pi_d_a4_a6_proc_0 + 2601 pi_d_a4_a6_proc_1 + 1282 pi_d_a6_a4_proc_2
     + 1282 pi_d_a6_a4_proc_0 + 2576 pi_d_a6_a4_proc_1 + 1307 pi_d_a4_a7_proc_0
     + 2601 pi_d_a4_a7_proc_1 + 1282 pi_d_a7_a4_proc_0 + 2576 pi_d_a7_a4_proc_1
     + 1307 pi_d_a4_a8_proc_2 + 2601 pi_d_a4_a8_proc_0 + 1307 pi_d_a4_a8_proc_1
     + 1282 pi_d_a8_a4_proc_2 + 2576 pi_d_a8_a4_proc_0 + 1282 pi_d_a8_a4_proc_1
     + 2588 pi_d_a4_a9_proc_0 + 2588 pi_d_a4_a9_proc_1 + pi_d_a9_a4_proc_2
     + 2589 pi_d_a9_a4_proc_0 + 2589 pi_d_a9_a4_proc_1 + 2601 pi_d_a5_a6_proc_2
     + 1307 pi_d_a5_a6_proc_0 + 1307 pi_d_a5_a6_proc_1 + 2576 pi_d_a6_a5_proc_2
     + 1282 pi_d_a6_a5_proc_0 + 1282 pi_d_a6_a5_proc_1 + 1282 pi_d_a5_a7_proc_0
     + 1282 pi_d_a5_a7_proc_1 + 1307 pi_d_a7_a5_proc_0 + 1307 pi_d_a7_a5_proc_1
     + 2589 pi_d_a5_a8_proc_2 + 2589 pi_d_a5_a8_proc_0 + pi_d_a5_a8_proc_1
     + 2588 pi_d_a8_a5_proc_2 + 2588 pi_d_a8_a5_proc_0 + 1282 pi_d_a5_a9_proc_2
     + 2576 pi_d_a5_a9_proc_0 + 1282 pi_d_a5_a9_proc_1 + 1307 pi_d_a9_a5_proc_2
     + 2601 pi_d_a9_a5_proc_0 + 1307 pi_d_a9_a5_proc_1 + pi_d_a6_a7_proc_0
     + 2589 pi_d_a6_a7_proc_1 + 2588 pi_d_a7_a6_proc_1 + 2601 pi_d_a6_a8_proc_2
     + 1307 pi_d_a6_a8_proc_0 + 1307 pi_d_a6_a8_proc_1 + 2576 pi_d_a8_a6_proc_2
     + 1282 pi_d_a8_a6_proc_0 + 1282 pi_d_a8_a6_proc_1 + 1307 pi_d_a6_a9_proc_2
     + 1307 pi_d_a6_a9_proc_0 + 2601 pi_d_a6_a9_proc_1 + 1282 pi_d_a9_a6_proc_2
     + 1282 pi_d_a9_a6_proc_0 + 2576 pi_d_a9_a6_proc_1 + 1307 pi_d_a7_a8_proc_0
     + 1307 pi_d_a7_a8_proc_1 + 1282 pi_d_a8_a7_proc_0 + 1282 pi_d_a8_a7_proc_1
     + 1307 pi_d_a7_a9_proc_0 + 2601 pi_d_a7_a9_proc_1 + 1282 pi_d_a9_a7_proc_0
     + 2576 pi_d_a9_a7_proc_1 + 1307 pi_d_a8_a9_proc_2 + 2601 pi_d_a8_a9_proc_0
     + 1307 pi_d_a8_a9_proc_1 + 1282 pi_d_a9_a8_proc_2 + 2576 pi_d_a9_a8_proc_0
     + 1282 pi_d_a9_a8_proc_1 + pi_y2_a0_proc_0 + pi_y2_a1_proc_1
     + pi_y2_a2_proc_2 + pi_y2_a3_proc_1 + pi_y2_a4_proc_2 + pi_y2_a5_proc_1
     + pi_y2_a6_proc_0 + pi_y2_a7_proc_0 + pi_y2_a8_proc_1 + pi_y2_a9_proc_2 = 
     0.000142816338
 c2: pi_nr_a0 + pi_nr_a1 + pi_nr_a2 + pi_nr_a3 + pi_nr_a4 + pi_nr_a5 + pi_nr_a6
     + pi_nr_a7 + pi_nr_a8 + pi_nr_a9 - pi_y1_a0 - pi_y1_a1 - pi_y1_a2
     - pi_y1_a3 - pi_y1_a4 - pi_y1_a5 - pi_y1_a6 - pi_y1_a7 - pi_y1_a8
     - pi_y1_a9 >= 1
 c3: - pi_p_a1_a0 + pi_p_a0_a4 + pi_d_a0_a1_proc_2 + pi_d_a0_a1_proc_0
     + pi_d_a0_a1_proc_1 - pi_d_a1_a0_proc_2 - pi_d_a1_a0_proc_0
     - pi_d_a1_a0_proc_1 + pi_d_a0_a2_proc_2 + pi_d_a0_a2_proc_0
     - pi_d_a2_a0_proc_2 - pi_d_a2_a0_proc_0 + pi_d_a0_a3_proc_2
     + pi_d_a0_a3_proc_0 + pi_d_a0_a3_proc_1 - pi_d_a3_a0_proc_2
     - pi_d_a3_a0_proc_0 - pi_d_a3_a0_proc_1 + pi_d_a0_a4_proc_2
     + pi_d_a0_a4_proc_0 + pi_d_a0_a4_proc_1 - pi_d_a4_a0_proc_2
     - pi_d_a4_a0_proc_0 - pi_d_a4_a0_proc_1 + pi_d_a0_a5_proc_2
     + pi_d_a0_a5_proc_0 + pi_d_a0_a5_proc_1 - pi_d_a5_a0_proc_2
     - pi_d_a5_a0_proc_0 - pi_d_a5_a0_proc_1 + pi_d_a0_a6_proc_2
     + pi_d_a0_a6_proc_0 + pi_d_a0_a6_proc_1 - pi_d_a6_a0_proc_2
     - pi_d_a6_a0_proc_0 - pi_d_a6_a0_proc_1 + pi_d_a0_a7_proc_0
     + pi_d_a0_a7_proc_1 - pi_d_a7_a0_proc_0 - pi_d_a7_a0_proc_1
     + pi_d_a0_a8_proc_2 + pi_d_a0_a8_proc_0 + pi_d_a0_a8_proc_1
     - pi_d_a8_a0_proc_2 - pi_d_a8_a0_proc_0 - pi_d_a8_a0_proc_1
     + pi_d_a0_a9_proc_2 + pi_d_a0_a9_proc_0 + pi_d_a0_a9_proc_1
     - pi_d_a9_a0_proc_2 - pi_d_a9_a0_proc_0 - pi_d_a9_a0_proc_1 >= 0
 c4: 292 pi_p_a0_a4 + 292 pi_d_a0_a1_proc_0 + 292 pi_d_a0_a2_proc_0
     + 292 pi_d_a0_a3_proc_0 + 292 pi_d_a0_a4_proc_0 + 292 pi_d_a0_a5_proc_0
     + 292 pi_d_a0_a6_proc_0 + 292 pi_d_a0_a7_proc_0 + 292 pi_d_a0_a8_proc_0
     + 292 pi_d_a0_a9_proc_0 + pi_y1_a0 + pi_y2_a0_proc_0 >= 0
 c5: 890 pi_p_a0_a4 + 890 pi_d_a0_a1_proc_1 + 890 pi_d_a0_a3_proc_1
     + 890 pi_d_a0_a4_proc_1 + 890 pi_d_a0_a5_proc_1 + 890 pi_d_a0_a6_proc_1
     + 890 pi_d_a0_a7_proc_1 + 890 pi_d_a0_a8_proc_1 + 890 pi_d_a0_a9_proc_1
     + pi_y1_a0 + pi_y2_a0_proc_1 >= 0
 c6: 949 pi_p_a0_a4 + 949 pi_d_a0_a1_proc_2 + 949 pi_d_a0_a2_proc_2
     + 949 pi_d_a0_a3_proc_2 + 949 pi_d_a0_a4_proc_2 + 949 pi_d_a0_a5_proc_2
     + 949 pi_d_a0_a6_proc_2 + 949 pi_d_a0_a8_proc_2 + 949 pi_d_a0_a9_proc_2
     + pi_y1_a0 + pi_y2_a0_proc_2 >= 0
 c7: pi_p_a1_a0 + pi_p_a1_a2 - pi_p_a3_a1 - pi_d_a0_a1_proc_2
     - pi_d_a0_a1_proc_0 - pi_d_a0_a1_proc_1 + pi_d_a1_a0_proc_2
     + pi_d_a1_a0_proc_0 + pi_d_a1_a0_proc_1 + pi_d_a1_a2_proc_2
     + pi_d_a1_a2_proc_0 - pi_d_a2_a1_proc_2 - pi_d_a2_a1_proc_0
     + pi_d_a1_a3_proc_2 + pi_d_a1_a3_proc_0 + pi_d_a1_a3_proc_1
     - pi_d_a3_a1_proc_2 - pi_d_a3_a1_proc_0 - pi_d_a3_a1_proc_1
     + pi_d_a1_a4_proc_2 + pi_d_a1_a4_proc_0 + pi_d_a1_a4_proc_1
     - pi_d_a4_a1_proc_2 - pi_d_a4_a1_proc_0 - pi_d_a4_a1_proc_1
     + pi_d_a1_a5_proc_2 + pi_d_a1_a5_proc_0 + pi_d_a1_a5_proc_1
     - pi_d_a5_a1_proc_2 - pi_d_a5_a1_proc_0 - pi_d_a5_a1_proc_1
     + pi_d_a1_a6_proc_2 + pi_d_a1_a6_proc_0 + pi_d_a1_a6_proc_1
     - pi_d_a6_a1_proc_2 - pi_d_a6_a1_proc_0 - pi_d_a6_a1_proc_1
     + pi_d_a1_a7_proc_0 + pi_d_a1_a7_proc_1 - pi_d_a7_a1_proc_0
     - pi_d_a7_a1_proc_1 + pi_d_a1_a8_proc_2 + pi_d_a1_a8_proc_0
     + pi_d_a1_a8_proc_1 - pi_d_a8_a1_proc_2 - pi_d_a8_a1_proc_0
     - pi_d_a8_a1_proc_1 + pi_d_a1_a9_proc_2 + pi_d_a1_a9_proc_0
     + pi_d_a1_a9_proc_1 - pi_d_a9_a1_proc_2 - pi_d_a9_a1_proc_0
     - pi_d_a9_a1_proc_1 >= 0
 c8: 973 pi_p_a1_a0 + 973 pi_p_a1_a2 + 973 pi_d_a1_a0_proc_0
     + 973 pi_d_a1_a2_proc_0 + 973 pi_d_a1_a3_proc_0 + 973 pi_d_a1_a4_proc_0
     + 973 pi_d_a1_a5_proc_0 + 973 pi_d_a1_a6_proc_0 + 973 pi_d_a1_a7_proc_0
     + 973 pi_d_a1_a8_proc_0 + 973 pi_d_a1_a9_proc_0 + pi_y1_a1
     + pi_y2_a1_proc_0 >= 0
 c9: 1137 pi_p_a1_a0 + 1137 pi_p_a1_a2 + 1137 pi_d_a1_a0_proc_1
     + 1137 pi_d_a1_a3_proc_1 + 1137 pi_d_a1_a4_proc_1 + 1137 pi_d_a1_a5_proc_1
     + 1137 pi_d_a1_a6_proc_1 + 1137 pi_d_a1_a7_proc_1 + 1137 pi_d_a1_a8_proc_1
     + 1137 pi_d_a1_a9_proc_1 + pi_y1_a1 + pi_y2_a1_proc_1 >= 0
 c10: 693 pi_p_a1_a0 + 693 pi_p_a1_a2 + 693 pi_d_a1_a0_proc_2
      + 693 pi_d_a1_a2_proc_2 + 693 pi_d_a1_a3_proc_2 + 693 pi_d_a1_a4_proc_2
      + 693 pi_d_a1_a5_proc_2 + 693 pi_d_a1_a6_proc_2 + 693 pi_d_a1_a8_proc_2
      + 693 pi_d_a1_a9_proc_2 + pi_y1_a1 + pi_y2_a1_proc_2 >= 0
 c11: - pi_p_a1_a2 + pi_p_a2_a5 + pi_p_a2_a8 - pi_d_a0_a2_proc_2
      - pi_d_a0_a2_proc_0 + pi_d_a2_a0_proc_2 + pi_d_a2_a0_proc_0
      - pi_d_a1_a2_proc_2 - pi_d_a1_a2_proc_0 + pi_d_a2_a1_proc_2
      + pi_d_a2_a1_proc_0 + pi_d_a2_a3_proc_2 + pi_d_a2_a3_proc_0
      - pi_d_a3_a2_proc_2 - pi_d_a3_a2_proc_0 + pi_d_a2_a4_proc_2
      + pi_d_a2_a4_proc_0 - pi_d_a4_a2_proc_2 - pi_d_a4_a2_proc_0
      + pi_d_a2_a5_proc_2 + pi_d_a2_a5_proc_0 - pi_d_a5_a2_proc_2
      - pi_d_a5_a2_proc_0 + pi_d_a2_a6_proc_2 + pi_d_a2_a6_proc_0
      - pi_d_a6_a2_proc_2 - pi_d_a6_a2_proc_0 + pi_d_a2_a7_proc_0
      - pi_d_a7_a2_proc_0 + pi_d_a2_a8_proc_2 + pi_d_a2_a8_proc_0
      - pi_d_a8_a2_proc_2 - pi_d_a8_a2_proc_0 + pi_d_a2_a9_proc_2
      + pi_d_a2_a9_proc_0 - pi_d_a9_a2_proc_2 - pi_d_a9_a2_proc_0 >= 0
 c12: 555 pi_p_a2_a5 + 555 pi_p_a2_a8 + 555 pi_d_a2_a0_proc_0
      + 555 pi_d_a2_a1_proc_0 + 555 pi_d_a2_a3_proc_0 + 555 pi_d_a2_a4_proc_0
      + 555 pi_d_a2_a5_proc_0 + 555 pi_d_a2_a6_proc_0 + 555 pi_d_a2_a7_proc_0
      + 555 pi_d_a2_a8_proc_0 + 555 pi_d_a2_a9_proc_0 + pi_y1_a2
      + pi_y2_a2_proc_0 >= 0
 c13: 907 pi_p_a2_a5 + 907 pi_p_a2_a8 + 907 pi_d_a2_a0_proc_2
      + 907 pi_d_a2_a1_proc_2 + 907 pi_d_a2_a3_proc_2 + 907 pi_d_a2_a4_proc_2
      + 907 pi_d_a2_a5_proc_2 + 907 pi_d_a2_a6_proc_2 + 907 pi_d_a2_a8_proc_2
      + 907 pi_d_a2_a9_proc_2 + pi_y1_a2 + pi_y2_a2_proc_2 >= 0
 c14: pi_p_a3_a1 - pi_p_a6_a3 + pi_p_a3_a8 - pi_p_a9_a3 - pi_d_a0_a3_proc_2
      - pi_d_a0_a3_proc_0 - pi_d_a0_a3_proc_1 + pi_d_a3_a0_proc_2
      + pi_d_a3_a0_proc_0 + pi_d_a3_a0_proc_1 - pi_d_a1_a3_proc_2
      - pi_d_a1_a3_proc_0 - pi_d_a1_a3_proc_1 + pi_d_a3_a1_proc_2
      + pi_d_a3_a1_proc_0 + pi_d_a3_a1_proc_1 - pi_d_a2_a3_proc_2
      - pi_d_a2_a3_proc_0 + pi_d_a3_a2_proc_2 + pi_d_a3_a2_proc_0
      + pi_d_a3_a4_proc_2 + pi_d_a3_a4_proc_0 + pi_d_a3_a4_proc_1
      - pi_d_a4_a3_proc_2 - pi_d_a4_a3_proc_0 - pi_d_a4_a3_proc_1
      + pi_d_a3_a5_proc_2 + pi_d_a3_a5_proc_0 + pi_d_a3_a5_proc_1
      - pi_d_a5_a3_proc_2 - pi_d_a5_a3_proc_0 - pi_d_a5_a3_proc_1
      + pi_d_a3_a6_proc_2 + pi_d_a3_a6_proc_0 + pi_d_a3_a6_proc_1
      - pi_d_a6_a3_proc_2 - pi_d_a6_a3_proc_0 - pi_d_a6_a3_proc_1
      + pi_d_a3_a7_proc_0 + pi_d_a3_a7_proc_1 - pi_d_a7_a3_proc_0
      - pi_d_a7_a3_proc_1 + pi_d_a3_a8_proc_2 + pi_d_a3_a8_proc_0
      + pi_d_a3_a8_proc_1 - pi_d_a8_a3_proc_2 - pi_d_a8_a3_proc_0
      - pi_d_a8_a3_proc_1 + pi_d_a3_a9_proc_2 + pi_d_a3_a9_proc_0
      + pi_d_a3_a9_proc_1 - pi_d_a9_a3_proc_2 - pi_d_a9_a3_proc_0
      - pi_d_a9_a3_proc_1 >= 0
 c15: 843 pi_p_a3_a1 + 843 pi_p_a3_a8 + 843 pi_d_a3_a0_proc_0
      + 843 pi_d_a3_a1_proc_0 + 843 pi_d_a3_a2_proc_0 + 843 pi_d_a3_a4_proc_0
      + 843 pi_d_a3_a5_proc_0 + 843 pi_d_a3_a6_proc_0 + 843 pi_d_a3_a7_proc_0
      + 843 pi_d_a3_a8_proc_0 + 843 pi_d_a3_a9_proc_0 + pi_y1_a3
      + pi_y2_a3_proc_0 >= 0
 c16: 522 pi_p_a3_a1 + 522 pi_p_a3_a8 + 522 pi_d_a3_a0_proc_1
      + 522 pi_d_a3_a1_proc_1 + 522 pi_d_a3_a4_proc_1 + 522 pi_d_a3_a5_proc_1
      + 522 pi_d_a3_a6_proc_1 + 522 pi_d_a3_a7_proc_1 + 522 pi_d_a3_a8_proc_1
      + 522 pi_d_a3_a9_proc_1 + pi_y1_a3 + pi_y2_a3_proc_1 >= 0
 c17: 1235 pi_p_a3_a1 + 1235 pi_p_a3_a8 + 1235 pi_d_a3_a0_proc_2
      + 1235 pi_d_a3_a1_proc_2 + 1235 pi_d_a3_a2_proc_2 + 1235 pi_d_a3_a4_proc_2
      + 1235 pi_d_a3_a5_proc_2 + 1235 pi_d_a3_a6_proc_2 + 1235 pi_d_a3_a8_proc_2
      + 1235 pi_d_a3_a9_proc_2 + pi_y1_a3 + pi_y2_a3_proc_2 >= 0
 c18: - pi_p_a0_a4 + pi_p_a4_a9 - pi_d_a0_a4_proc_2 - pi_d_a0_a4_proc_0
      - pi_d_a0_a4_proc_1 + pi_d_a4_a0_proc_2 + pi_d_a4_a0_proc_0
      + pi_d_a4_a0_proc_1 - pi_d_a1_a4_proc_2 - pi_d_a1_a4_proc_0
      - pi_d_a1_a4_proc_1 + pi_d_a4_a1_proc_2 + pi_d_a4_a1_proc_0
      + pi_d_a4_a1_proc_1 - pi_d_a2_a4_proc_2 - pi_d_a2_a4_proc_0
      + pi_d_a4_a2_proc_2 + pi_d_a4_a2_proc_0 - pi_d_a3_a4_proc_2
      - pi_d_a3_a4_proc_0 - pi_d_a3_a4_proc_1 + pi_d_a4_a3_proc_2
      + pi_d_a4_a3_proc_0 + pi_d_a4_a3_proc_1 + pi_d_a4_a5_proc_2
      + pi_d_a4_a5_proc_0 + pi_d_a4_a5_proc_1 - pi_d_a5_a4_proc_2
      - pi_d_a5_a4_proc_0 - pi_d_a5_a4_proc_1 + pi_d_a4_a6_proc_2
      + pi_d_a4_a6_proc_0 + pi_d_a4_a6_proc_1 - pi_d_a6_a4_proc_2
      - pi_d_a6_a4_proc_0 - pi_d_a6_a4_proc_1 + pi_d_a4_a7_proc_0
      + pi_d_a4_a7_proc_1 - pi_d_a7_a4_proc_0 - pi_d_a7_a4_proc_1
      + pi_d_a4_a8_proc_2 + pi_d_a4_a8_proc_0 + pi_d_a4_a8_proc_1
      - pi_d_a8_a4_proc_2 - pi_d_a8_a4_proc_0 - pi_d_a8_a4_proc_1
      + pi_d_a4_a9_proc_2 + pi_d_a4_a9_proc_0 + pi_d_a4_a9_proc_1
      - pi_d_a9_a4_proc_2 - pi_d_a9_a4_proc_0 - pi_d_a9_a4_proc_1 >= 0
 c19: 982 pi_p_a4_a9 + 982 pi_d_a4_a0_proc_0 + 982 pi_d_a4_a1_proc_0
      + 982 pi_d_a4_a2_proc_0 + 982 pi_d_a4_a3_proc_0 + 982 pi_d_a4_a5_proc_0
      + 982 pi_d_a4_a6_proc_0 + 982 pi_d_a4_a7_proc_0 + 982 pi_d_a4_a8_proc_0
      + 982 pi_d_a4_a9_proc_0 + pi_y1_a4 + pi_y2_a4_proc_0 >= 0
 c20: 1069 pi_p_a4_a9 + 1069 pi_d_a4_a0_proc_1 + 1069 pi_d_a4_a1_proc_1
      + 1069 pi_d_a4_a3_proc_1 + 1069 pi_d_a4_a5_proc_1 + 1069 pi_d_a4_a6_proc_1
      + 1069 pi_d_a4_a7_proc_1 + 1069 pi_d_a4_a8_proc_1 + 1069 pi_d_a4_a9_proc_1
      + pi_y1_a4 + pi_y2_a4_proc_1 >= 0
 c21: 965 pi_p_a4_a9 + 965 pi_d_a4_a0_proc_2 + 965 pi_d_a4_a1_proc_2
      + 965 pi_d_a4_a2_proc_2 + 965 pi_d_a4_a3_proc_2 + 965 pi_d_a4_a5_proc_2
      + 965 pi_d_a4_a6_proc_2 + 965 pi_d_a4_a8_proc_2 + 965 pi_d_a4_a9_proc_2
      + pi_y1_a4 + pi_y2_a4_proc_2 >= 0
 c22: - pi_p_a2_a5 - pi_d_a0_a5_proc_2 - pi_d_a0_a5_proc_0 - pi_d_a0_a5_proc_1
      + pi_d_a5_a0_proc_2 + pi_d_a5_a0_proc_0 + pi_d_a5_a0_proc_1
      - pi_d_a1_a5_proc_2 - pi_d_a1_a5_proc_0 - pi_d_a1_a5_proc_1
      + pi_d_a5_a1_proc_2 + pi_d_a5_a1_proc_0 + pi_d_a5_a1_proc_1
      - pi_d_a2_a5_proc_2 - pi_d_a2_a5_proc_0 + pi_d_a5_a2_proc_2
      + pi_d_a5_a2_proc_0 - pi_d_a3_a5_proc_2 - pi_d_a3_a5_proc_0
      - pi_d_a3_a5_proc_1 + pi_d_a5_a3_proc_2 + pi_d_a5_a3_proc_0
      + pi_d_a5_a3_proc_1 - pi_d_a4_a5_proc_2 - pi_d_a4_a5_proc_0
      - pi_d_a4_a5_proc_1 + pi_d_a5_a4_proc_2 + pi_d_a5_a4_proc_0
      + pi_d_a5_a4_proc_1 + pi_d_a5_a6_proc_2 + pi_d_a5_a6_proc_0
      + pi_d_a5_a6_proc_1 - pi_d_a6_a5_proc_2 - pi_d_a6_a5_proc_0
      - pi_d_a6_a5_proc_1 + pi_d_a5_a7_proc_0 + pi_d_a5_a7_proc_1
      - pi_d_a7_a5_proc_0 - pi_d_a7_a5_proc_1 + pi_d_a5_a8_proc_2
      + pi_d_a5_a8_proc_0 + pi_d_a5_a8_proc_1 - pi_d_a8_a5_proc_2
      - pi_d_a8_a5_proc_0 - pi_d_a8_a5_proc_1 + pi_d_a5_a9_proc_2
      + pi_d_a5_a9_proc_0 + pi_d_a5_a9_proc_1 - pi_d_a9_a5_proc_2
      - pi_d_a9_a5_proc_0 - pi_d_a9_a5_proc_1 >= 0
 c23: 1205 pi_d_a5_a0_proc_0 + 1205 pi_d_a5_a1_proc_0 + 1205 pi_d_a5_a2_proc_0
      + 1205 pi_d_a5_a3_proc_0 + 1205 pi_d_a5_a4_proc_0 + 1205 pi_d_a5_a6_proc_0
      + 1205 pi_d_a5_a7_proc_0 + 1205 pi_d_a5_a8_proc_0 + 1205 pi_d_a5_a9_proc_0
      + pi_y1_a5 + pi_y2_a5_proc_0 >= 0
 c24: 731 pi_d_a5_a0_proc_1 + 731 pi_d_a5_a1_proc_1 + 731 pi_d_a5_a3_proc_1
      + 731 pi_d_a5_a4_proc_1 + 731 pi_d_a5_a6_proc_1 + 731 pi_d_a5_a7_proc_1
      + 731 pi_d_a5_a8_proc_1 + 731 pi_d_a5_a9_proc_1 + pi_y1_a5
      + pi_y2_a5_proc_1 >= 0
 c25: 804 pi_d_a5_a0_proc_2 + 804 pi_d_a5_a1_proc_2 + 804 pi_d_a5_a2_proc_2
      + 804 pi_d_a5_a3_proc_2 + 804 pi_d_a5_a4_proc_2 + 804 pi_d_a5_a6_proc_2
      + 804 pi_d_a5_a8_proc_2 + 804 pi_d_a5_a9_proc_2 + pi_y1_a5
      + pi_y2_a5_proc_2 >= 0
 c26: pi_p_a6_a3 - pi_p_a7_a6 - pi_d_a0_a6_proc_2 - pi_d_a0_a6_proc_0
      - pi_d_a0_a6_proc_1 + pi_d_a6_a0_proc_2 + pi_d_a6_a0_proc_0
      + pi_d_a6_a0_proc_1 - pi_d_a1_a6_proc_2 - pi_d_a1_a6_proc_0
      - pi_d_a1_a6_proc_1 + pi_d_a6_a1_proc_2 + pi_d_a6_a1_proc_0
      + pi_d_a6_a1_proc_1 - pi_d_a2_a6_proc_2 - pi_d_a2_a6_proc_0
      + pi_d_a6_a2_proc_2 + pi_d_a6_a2_proc_0 - pi_d_a3_a6_proc_2
      - pi_d_a3_a6_proc_0 - pi_d_a3_a6_proc_1 + pi_d_a6_a3_proc_2
      + pi_d_a6_a3_proc_0 + pi_d_a6_a3_proc_1 - pi_d_a4_a6_proc_2
      - pi_d_a4_a6_proc_0 - pi_d_a4_a6_proc_1 + pi_d_a6_a4_proc_2
      + pi_d_a6_a4_proc_0 + pi_d_a6_a4_proc_1 - pi_d_a5_a6_proc_2
      - pi_d_a5_a6_proc_0 - pi_d_a5_a6_proc_1 + pi_d_a6_a5_proc_2
      + pi_d_a6_a5_proc_0 + pi_d_a6_a5_proc_1 + pi_d_a6_a7_proc_0
      + pi_d_a6_a7_proc_1 - pi_d_a7_a6_proc_0 - pi_d_a7_a6_proc_1
      + pi_d_a6_a8_proc_2 + pi_d_a6_a8_proc_0 + pi_d_a6_a8_proc_1
      - pi_d_a8_a6_proc_2 - pi_d_a8_a6_proc_0 - pi_d_a8_a6_proc_1
      + pi_d_a6_a9_proc_2 + pi_d_a6_a9_proc_0 + pi_d_a6_a9_proc_1
      - pi_d_a9_a6_proc_2 - pi_d_a9_a6_proc_0 - pi_d_a9_a6_proc_1 >= 0
 c27: 606 pi_p_a6_a3 + 606 pi_d_a6_a0_proc_0 + 606 pi_d_a6_a1_proc_0
      + 606 pi_d_a6_a2_proc_0 + 606 pi_d_a6_a3_proc_0 + 606 pi_d_a6_a4_proc_0
      + 606 pi_d_a6_a5_proc_0 + 606 pi_d_a6_a7_proc_0 + 606 pi_d_a6_a8_proc_0
      + 606 pi_d_a6_a9_proc_0 + pi_y1_a6 + pi_y2_a6_proc_0 >= 0
 c28: 829 pi_p_a6_a3 + 829 pi_d_a6_a0_proc_1 + 829 pi_d_a6_a1_proc_1
      + 829 pi_d_a6_a3_proc_1 + 829 pi_d_a6_a4_proc_1 + 829 pi_d_a6_a5_proc_1
      + 829 pi_d_a6_a7_proc_1 + 829 pi_d_a6_a8_proc_1 + 829 pi_d_a6_a9_proc_1
      + pi_y1_a6 + pi_y2_a6_proc_1 >= 0
 c29: 956 pi_p_a6_a3 + 956 pi_d_a6_a0_proc_2 + 956 pi_d_a6_a1_proc_2
      + 956 pi_d_a6_a2_proc_2 + 956 pi_d_a6_a3_proc_2 + 956 pi_d_a6_a4_proc_2
      + 956 pi_d_a6_a5_proc_2 + 956 pi_d_a6_a8_proc_2 + 956 pi_d_a6_a9_proc_2
      + pi_y1_a6 + pi_y2_a6_proc_2 >= 0
 c30: pi_p_a7_a6 - pi_p_a8_a7 + pi_p_a7_a8 - pi_p_a9_a7 - pi_d_a0_a7_proc_0
      - pi_d_a0_a7_proc_1 + pi_d_a7_a0_proc_0 + pi_d_a7_a0_proc_1
      - pi_d_a1_a7_proc_0 - pi_d_a1_a7_proc_1 + pi_d_a7_a1_proc_0
      + pi_d_a7_a1_proc_1 - pi_d_a2_a7_proc_0 + pi_d_a7_a2_proc_0
      - pi_d_a3_a7_proc_0 - pi_d_a3_a7_proc_1 + pi_d_a7_a3_proc_0
      + pi_d_a7_a3_proc_1 - pi_d_a4_a7_proc_0 - pi_d_a4_a7_proc_1
      + pi_d_a7_a4_proc_0 + pi_d_a7_a4_proc_1 - pi_d_a5_a7_proc_0
      - pi_d_a5_a7_proc_1 + pi_d_a7_a5_proc_0 + pi_d_a7_a5_proc_1
      - pi_d_a6_a7_proc_0 - pi_d_a6_a7_proc_1 + pi_d_a7_a6_proc_0
      + pi_d_a7_a6_proc_1 + pi_d_a7_a8_proc_0 + pi_d_a7_a8_proc_1
      - pi_d_a8_a7_proc_0 - pi_d_a8_a7_proc_1 + pi_d_a7_a9_proc_0
      + pi_d_a7_a9_proc_1 - pi_d_a9_a7_proc_0 - pi_d_a9_a7_proc_1 >= 0
 c31: 1290 pi_p_a7_a6 + 1290 pi_p_a7_a8 + 1290 pi_d_a7_a0_proc_0
      + 1290 pi_d_a7_a1_proc_0 + 1290 pi_d_a7_a2_proc_0 + 1290 pi_d_a7_a3_proc_0
      + 1290 pi_d_a7_a4_proc_0 + 1290 pi_d_a7_a5_proc_0 + 1290 pi_d_a7_a6_proc_0
      + 1290 pi_d_a7_a8_proc_0 + 1290 pi_d_a7_a9_proc_0 + pi_y1_a7
      + pi_y2_a7_proc_0 >= 0
 c32: 960 pi_p_a7_a6 + 960 pi_p_a7_a8 + 960 pi_d_a7_a0_proc_1
      + 960 pi_d_a7_a1_proc_1 + 960 pi_d_a7_a3_proc_1 + 960 pi_d_a7_a4_proc_1
      + 960 pi_d_a7_a5_proc_1 + 960 pi_d_a7_a6_proc_1 + 960 pi_d_a7_a8_proc_1
      + 960 pi_d_a7_a9_proc_1 + pi_y1_a7 + pi_y2_a7_proc_1 >= 0
 c33: pi_p_a8_a7 - pi_p_a7_a8 - pi_p_a2_a8 - pi_p_a3_a8 - pi_d_a0_a8_proc_2
      - pi_d_a0_a8_proc_0 - pi_d_a0_a8_proc_1 + pi_d_a8_a0_proc_2
      + pi_d_a8_a0_proc_0 + pi_d_a8_a0_proc_1 - pi_d_a1_a8_proc_2
      - pi_d_a1_a8_proc_0 - pi_d_a1_a8_proc_1 + pi_d_a8_a1_proc_2
      + pi_d_a8_a1_proc_0 + pi_d_a8_a1_proc_1 - pi_d_a2_a8_proc_2
      - pi_d_a2_a8_proc_0 + pi_d_a8_a2_proc_2 + pi_d_a8_a2_proc_0
      - pi_d_a3_a8_proc_2 - pi_d_a3_a8_proc_0 - pi_d_a3_a8_proc_1
      + pi_d_a8_a3_proc_2 + pi_d_a8_a3_proc_0 + pi_d_a8_a3_proc_1
      - pi_d_a4_a8_proc_2 - pi_d_a4_a8_proc_0 - pi_d_a4_a8_proc_1
      + pi_d_a8_a4_proc_2 + pi_d_a8_a4_proc_0 + pi_d_a8_a4_proc_1
      - pi_d_a5_a8_proc_2 - pi_d_a5_a8_proc_0 - pi_d_a5_a8_proc_1
      + pi_d_a8_a5_proc_2 + pi_d_a8_a5_proc_0 + pi_d_a8_a5_proc_1
      - pi_d_a6_a8_proc_2 - pi_d_a6_a8_proc_0 - pi_d_a6_a8_proc_1
      + pi_d_a8_a6_proc_2 + pi_d_a8_a6_proc_0 + pi_d_a8_a6_proc_1
      - pi_d_a7_a8_proc_0 - pi_d_a7_a8_proc_1 + pi_d_a8_a7_proc_0
      + pi_d_a8_a7_proc_1 + pi_d_a8_a9_proc_2 + pi_d_a8_a9_proc_0
      + pi_d_a8_a9_proc_1 - pi_d_a9_a8_proc_2 - pi_d_a9_a8_proc_0
      - pi_d_a9_a8_proc_1 >= 0
 c34: 604 pi_p_a8_a7 + 604 pi_d_a8_a0_proc_0 + 604 pi_d_a8_a1_proc_0
      + 604 pi_d_a8_a2_proc_0 + 604 pi_d_a8_a3_proc_0 + 604 pi_d_a8_a4_proc_0
      + 604 pi_d_a8_a5_proc_0 + 604 pi_d_a8_a6_proc_0 + 604 pi_d_a8_a7_proc_0
      + 604 pi_d_a8_a9_proc_0 + pi_y1_a8 + pi_y2_a8_proc_0 >= 0
 c35: 1075 pi_p_a8_a7 + 1075 pi_d_a8_a0_proc_1 + 1075 pi_d_a8_a1_proc_1
      + 1075 pi_d_a8_a3_proc_1 + 1075 pi_d_a8_a4_proc_1 + 1075 pi_d_a8_a5_proc_1
      + 1075 pi_d_a8_a6_proc_1 + 1075 pi_d_a8_a7_proc_1 + 1075 pi_d_a8_a9_proc_1
      + pi_y1_a8 + pi_y2_a8_proc_1 >= 0
 c36: 460 pi_p_a8_a7 + 460 pi_d_a8_a0_proc_2 + 460 pi_d_a8_a1_proc_2
      + 460 pi_d_a8_a2_proc_2 + 460 pi_d_a8_a3_proc_2 + 460 pi_d_a8_a4_proc_2
      + 460 pi_d_a8_a5_proc_2 + 460 pi_d_a8_a6_proc_2 + 460 pi_d_a8_a9_proc_2
      + pi_y1_a8 + pi_y2_a8_proc_2 >= 0
 c37: - pi_p_a4_a9 + pi_p_a9_a7 + pi_p_a9_a3 - pi_d_a0_a9_proc_2
      - pi_d_a0_a9_proc_0 - pi_d_a0_a9_proc_1 + pi_d_a9_a0_proc_2
      + pi_d_a9_a0_proc_0 + pi_d_a9_a0_proc_1 - pi_d_a1_a9_proc_2
      - pi_d_a1_a9_proc_0 - pi_d_a1_a9_proc_1 + pi_d_a9_a1_proc_2
      + pi_d_a9_a1_proc_0 + pi_d_a9_a1_proc_1 - pi_d_a2_a9_proc_2
      - pi_d_a2_a9_proc_0 + pi_d_a9_a2_proc_2 + pi_d_a9_a2_proc_0
      - pi_d_a3_a9_proc_2 - pi_d_a3_a9_proc_0 - pi_d_a3_a9_proc_1
      + pi_d_a9_a3_proc_2 + pi_d_a9_a3_proc_0 + pi_d_a9_a3_proc_1
      - pi_d_a4_a9_proc_2 - pi_d_a4_a9_proc_0 - pi_d_a4_a9_proc_1
      + pi_d_a9_a4_proc_2 + pi_d_a9_a4_proc_0 + pi_d_a9_a4_proc_1
      - pi_d_a5_a9_proc_2 - pi_d_a5_a9_proc_0 - pi_d_a5_a9_proc_1
      + pi_d_a9_a5_proc_2 + pi_d_a9_a5_proc_0 + pi_d_a9_a5_proc_1
      - pi_d_a6_a9_proc_2 - pi_d_a6_a9_proc_0 - pi_d_a6_a9_proc_1
      + pi_d_a9_a6_proc_2 + pi_d_a9_a6_proc_0 + pi_d_a9_a6_proc_1
      - pi_d_a7_a9_proc_0 - pi_d_a7_a9_proc_1 + pi_d_a9_a7_proc_0
      + pi_d_a9_a7_proc_1 - pi_d_a8_a9_proc_2 - pi_d_a8_a9_proc_0
      - pi_d_a8_a9_proc_1 + pi_d_a9_a8_proc_2 + pi_d_a9_a8_proc_0
      + pi_d_a9_a8_proc_1 >= 0
 c38: 1142 pi_p_a9_a7 + 1142 pi_p_a9_a3 + 1142 pi_d_a9_a0_proc_0
      + 1142 pi_d_a9_a1_proc_0 + 1142 pi_d_a9_a2_proc_0 + 1142 pi_d_a9_a3_proc_0
      + 1142 pi_d_a9_a4_proc_0 + 1142 pi_d_a9_a5_proc_0 + 1142 pi_d_a9_a6_proc_0
      + 1142 pi_d_a9_a7_proc_0 + 1142 pi_d_a9_a8_proc_0 + pi_y1_a9
      + pi_y2_a9_proc_0 >= 0
 c39: 1294 pi_p_a9_a7 + 1294 pi_p_a9_a3 + 1294 pi_d_a9_a0_proc_1
      + 1294 pi_d_a9_a1_proc_1 + 1294 pi_d_a9_a3_proc_1 + 1294 pi_d_a9_a4_proc_1
      + 1294 pi_d_a9_a5_proc_1 + 1294 pi_d_a9_a6_proc_1 + 1294 pi_d_a9_a7_proc_1
      + 1294 pi_d_a9_a8_proc_1 + pi_y1_a9 + pi_y2_a9_proc_1 >= 0
 c40: 1115 pi_p_a9_a7 + 1115 pi_p_a9_a3 + 1115 pi_d_a9_a0_proc_2
      + 1115 pi_d_a9_a1_proc_2 + 1115 pi_d_a9_a2_proc_2 + 1115 pi_d_a9_a3_proc_2
      + 1115 pi_d_a9_a4_proc_2 + 1115 pi_d_a9_a5_proc_2 + 1115 pi_d_a9_a6_proc_2
      + 1115 pi_d_a9_a8_proc_2 + pi_y1_a9 + pi_y2_a9_proc_2 >= 0

Bounds
       pi_y1_a0 Free
       pi_y1_a1 Free
       pi_y1_a2 Free
       pi_y1_a3 Free
       pi_y1_a4 Free
       pi_y1_a5 Free
       pi_y1_a6 Free
       pi_y1_a7 Free
       pi_y1_a8 Free
       pi_y1_a9 Free
End
