benchmark/results/graph__10-1000-0.10-03_5/graph__10-1000-0.10-03_5_QuintonOs_Benders_aux.txt
solution for: Quinton Bounded Benders_auxiliary_sub
objective: 0.316096
status: OPTIMAL_SOLUTION(2)
pi_p_a1_a0=0.000
pi_p_a0_a4=0.000
pi_p_a6_a3=0.000
pi_p_a7_a6=0.000
pi_p_a4_a9=0.000
pi_p_a9_a7=0.000
pi_p_a3_a8=0.000
pi_d_a8_a1_proc_1=0.000
pi_y1_a0=-0.042
pi_y1_a1=-0.162
pi_y1_a3=-0.075
pi_y1_a4=-0.138
pi_y1_a6=-0.087
pi_y1_a7=-0.184
pi_y1_a8=-0.154
pi_y1_a9=-0.159
pi_y2_a1_proc_0=0.023
pi_y2_a1_proc_2=0.063
pi_y2_a7_proc_1=0.047
pi_y2_a8_proc_0=0.154
pi_y2_a8_proc_2=0.154
